p cnf 22 16
18 13 9 16 1 7 0
4 -17 -20 14 0
18 -2 3 0
-3 7 -2 0
-4 18 8 0
20 1 0
4 22 9 0
-14 -2 0
10 13 2 12 -11 9 5 -3 19 21 8 0
-5 3 -14 13 8 6 -22 20 16 0
-3 9 16 -11 -7 -8 21 6 -2 -4 -5 -12 -19 10 -13 18 -15 17 0
13 -8 -11 -22 20 -3 12 1 2 -19 -7 -14 0
10 13 -12 19 0
6 -22 17 13 11 -9 21 15 -16 -5 -10 19 0
-6 16 0
14 -1 3 -9 10 -17 4 8 7 -5 22 -6 -11 -21 -13 15 12 0
